
15 10 19 10 13 13 5 5 15 15 5 19 18 13 13 13 13 5 5 15 10 10 10 19 10 10 15 19 19 15 15 15 19 19 15 5 13 13 10 10 10 13 13 13 5 5 5 5 5 19 15 5 10 10 10 10 13 10 18 13 13 5 5 5 15 15 10 19 15 15 15 10 10 10 10 19 19 19 19 19 19 5 13 13 18 13 18 5 18 5 13 13 18 18 18 18 13 18 13 13 
